76
Iaa-Iaa_solute_0001  0.000000
C 28.0860 24.1730 26.5370
N 29.2680 23.4900 26.6110
H 29.4730 22.5030 26.4560
C 30.5790 23.9480 26.8780
C 31.6520 23.1000 27.2690
C 32.8240 23.6340 27.8050
C 32.9770 24.9900 27.9460
C 32.0240 25.9070 27.4560
C 30.8690 25.3540 26.8450
C 31.7050 21.6140 27.0950
O 30.6900 20.9910 26.9850
I 34.9270 25.3830 28.1970
N 32.8920 20.8920 27.1390
H 33.6890 21.3600 26.7090
O 28.1410 25.2930 27.1110
C 33.1290 19.3680 26.9820
C 26.8400 23.6060 25.9360
C 32.5930 18.6530 28.2140
C 32.6600 18.8570 25.6330
C 33.6410 18.7030 29.3090
C 33.6840 19.2420 24.5580
C 25.5450 24.1670 25.8130
C 24.5010 23.3820 25.1870
C 24.7340 22.1080 24.7020
C 26.0070 21.4950 24.9000
C 27.0020 22.2710 25.4900
N 25.3100 25.5160 26.1060
H 26.1280 25.8120 26.6370
I 26.6230 19.5350 24.6100
C 24.4220 26.2680 25.4890
O 23.7160 25.9110 24.5110
C 24.2990 27.7620 25.9660
C 22.8550 28.0210 26.4390
C 24.6700 28.6310 24.8130
C 26.1460 28.4850 24.4640
C 22.9000 28.3700 27.9180
C 23.1640 27.2080 28.8930
C 26.4370 28.9340 22.9880
C 33.2030 18.7840 23.1800
C 33.3930 19.9660 30.1210
H 33.6710 23.0350 28.1210
H 32.2970 26.9490 27.3310
H 30.0660 25.9050 26.3670
H 34.2000 19.1850 26.8960
H 32.5600 17.6350 27.8240
H 31.6040 19.0050 28.5090
H 31.6450 19.1950 25.4230
H 32.5560 17.7810 25.7740
H 33.4880 17.8280 29.9420
H 34.5770 18.7190 28.7490
H 34.6440 18.7640 24.7510
H 33.7310 20.3280 24.6510
H 23.5320 23.8660 25.1380
H 24.0850 21.3950 24.2050
H 27.8610 21.6210 25.6200
H 24.9940 27.8870 26.7970
H 22.2820 27.1130 26.2520
H 22.3450 28.8840 26.0100
H 24.4520 29.6920 24.9350
H 24.0740 28.2760 23.9720
H 26.3420 27.4130 24.4690
H 26.8280 28.8790 25.2190
H 22.0210 28.9520 28.1980
H 23.7210 29.0450 28.1630
H 22.7740 26.2350 28.5900
H 22.7410 27.5780 29.8280
H 24.2410 27.1470 29.0500
H 25.6050 28.5160 22.4210
H 27.3180 28.4320 22.5870
H 26.4970 30.0160 22.8660
H 32.1230 18.8050 23.3250
H 33.5970 17.7940 22.9500
H 33.5390 19.4250 22.3640
H 32.6260 19.6950 30.8470
H 33.0160 20.7840 29.5060
H 34.3000 20.2810 30.6400
